1 0 1 2 3 4 5 6 

1 0 1 2 3 4 5 6 

1 3 4 5 6 
2 0 1 2 

1 0 1 2 
2 3 4 5 6 

1 0 1 2 
2 3 4 5 6 

1 3 4 5 6 
2 0 1 2 

1 0 1 2 
2 3 4 5 6 

1 0 1 2 
2 3 4 5 6 

1 0 1 2 3 4 5 6 

1 0 1 2 3 4 5 6 

1 0 1 2 3 4 5 6 

1 3 4 5 6 
2 0 1 2 

1 0 1 2 3 4 5 6 

1 0 1 2 
2 3 4 5 6 

1 0 1 2 
2 3 4 5 6 

1 8 10 18 24 27 
2 0 1 2 3 4 5 6 7 9 11 12 13 14 15 16 17 19 20 21 22 23 25 26 28 29 30 31 32 33 34 35 36 

